Sudoku/sudoku4.lp
\ LP File for Sudoku (Tiny)
\ ..4.
\ 1...
\ ...3
\ .1..

\ Objective function is dummy
Minimize

Subject to
\ Problem
X_0_2_4 = 1
X_1_0_1 = 1
X_2_3_3 = 1
X_3_1_1 = 1

\ Constraints 1
+ X_0_0_1 + X_0_0_2 + X_0_0_3 + X_0_0_4 = 1
+ X_0_1_1 + X_0_1_2 + X_0_1_3 + X_0_1_4 = 1
+ X_0_2_1 + X_0_2_2 + X_0_2_3 + X_0_2_4 = 1
+ X_0_3_1 + X_0_3_2 + X_0_3_3 + X_0_3_4 = 1
+ X_1_0_1 + X_1_0_2 + X_1_0_3 + X_1_0_4 = 1
+ X_1_1_1 + X_1_1_2 + X_1_1_3 + X_1_1_4 = 1
+ X_1_2_1 + X_1_2_2 + X_1_2_3 + X_1_2_4 = 1
+ X_1_3_1 + X_1_3_2 + X_1_3_3 + X_1_3_4 = 1
+ X_2_0_1 + X_2_0_2 + X_2_0_3 + X_2_0_4 = 1
+ X_2_1_1 + X_2_1_2 + X_2_1_3 + X_2_1_4 = 1
+ X_2_2_1 + X_2_2_2 + X_2_2_3 + X_2_2_4 = 1
+ X_2_3_1 + X_2_3_2 + X_2_3_3 + X_2_3_4 = 1
+ X_3_0_1 + X_3_0_2 + X_3_0_3 + X_3_0_4 = 1
+ X_3_1_1 + X_3_1_2 + X_3_1_3 + X_3_1_4 = 1
+ X_3_2_1 + X_3_2_2 + X_3_2_3 + X_3_2_4 = 1
+ X_3_3_1 + X_3_3_2 + X_3_3_3 + X_3_3_4 = 1

\Constraints 2
+ X_0_0_1 + X_0_1_1 + X_0_2_1 + X_0_3_1 = 1
+ X_1_0_1 + X_1_1_1 + X_1_2_1 + X_1_3_1 = 1
+ X_2_0_1 + X_2_1_1 + X_2_2_1 + X_2_3_1 = 1
+ X_3_0_1 + X_3_1_1 + X_3_2_1 + X_3_3_1 = 1
+ X_0_0_2 + X_0_1_2 + X_0_2_2 + X_0_3_2 = 1
+ X_1_0_2 + X_1_1_2 + X_1_2_2 + X_1_3_2 = 1
+ X_2_0_2 + X_2_1_2 + X_2_2_2 + X_2_3_2 = 1
+ X_3_0_2 + X_3_1_2 + X_3_2_2 + X_3_3_2 = 1
+ X_0_0_3 + X_0_1_3 + X_0_2_3 + X_0_3_3 = 1
+ X_1_0_3 + X_1_1_3 + X_1_2_3 + X_1_3_3 = 1
+ X_2_0_3 + X_2_1_3 + X_2_2_3 + X_2_3_3 = 1
+ X_3_0_3 + X_3_1_3 + X_3_2_3 + X_3_3_3 = 1
+ X_0_0_4 + X_0_1_4 + X_0_2_4 + X_0_3_4 = 1
+ X_1_0_4 + X_1_1_4 + X_1_2_4 + X_1_3_4 = 1
+ X_2_0_4 + X_2_1_4 + X_2_2_4 + X_2_3_4 = 1
+ X_3_0_4 + X_3_1_4 + X_3_2_4 + X_3_3_4 = 1

\ Constraints 3
+ X_0_0_1 + X_1_0_1 + X_2_0_1 + X_3_0_1 = 1
+ X_0_1_1 + X_1_1_1 + X_2_1_1 + X_3_1_1 = 1
+ X_0_2_1 + X_1_2_1 + X_2_2_1 + X_3_2_1 = 1
+ X_0_3_1 + X_1_3_1 + X_2_3_1 + X_3_3_1 = 1
+ X_0_0_2 + X_1_0_2 + X_2_0_2 + X_3_0_2 = 1
+ X_0_1_2 + X_1_1_2 + X_2_1_2 + X_3_1_2 = 1
+ X_0_2_2 + X_1_2_2 + X_2_2_2 + X_3_2_2 = 1
+ X_0_3_2 + X_1_3_2 + X_2_3_2 + X_3_3_2 = 1
+ X_0_0_3 + X_1_0_3 + X_2_0_3 + X_3_0_3 = 1
+ X_0_1_3 + X_1_1_3 + X_2_1_3 + X_3_1_3 = 1
+ X_0_2_3 + X_1_2_3 + X_2_2_3 + X_3_2_3 = 1
+ X_0_3_3 + X_1_3_3 + X_2_3_3 + X_3_3_3 = 1
+ X_0_0_4 + X_1_0_4 + X_2_0_4 + X_3_0_4 = 1
+ X_0_1_4 + X_1_1_4 + X_2_1_4 + X_3_1_4 = 1
+ X_0_2_4 + X_1_2_4 + X_2_2_4 + X_3_2_4 = 1
+ X_0_3_4 + X_1_3_4 + X_2_3_4 + X_3_3_4 = 1

\ Constraints 4
+ X_0_0_1 + X_0_1_1 + X_1_0_1 + X_1_1_1 = 1
+ X_0_2_1 + X_0_3_1 + X_1_2_1 + X_1_3_1 = 1
+ X_2_0_1 + X_2_1_1 + X_3_0_1 + X_3_1_1 = 1
+ X_2_2_1 + X_2_3_1 + X_3_2_1 + X_3_3_1 = 1
+ X_0_0_2 + X_0_1_2 + X_1_0_2 + X_1_1_2 = 1
+ X_0_2_2 + X_0_3_2 + X_1_2_2 + X_1_3_2 = 1
+ X_2_0_2 + X_2_1_2 + X_3_0_2 + X_3_1_2 = 1
+ X_2_2_2 + X_2_3_2 + X_3_2_2 + X_3_3_2 = 1
+ X_0_0_3 + X_0_1_3 + X_1_0_3 + X_1_1_3 = 1
+ X_0_2_3 + X_0_3_3 + X_1_2_3 + X_1_3_3 = 1
+ X_2_0_3 + X_2_1_3 + X_3_0_3 + X_3_1_3 = 1
+ X_2_2_3 + X_2_3_3 + X_3_2_3 + X_3_3_3 = 1
+ X_0_0_4 + X_0_1_4 + X_1_0_4 + X_1_1_4 = 1
+ X_0_2_4 + X_0_3_4 + X_1_2_4 + X_1_3_4 = 1
+ X_2_0_4 + X_2_1_4 + X_3_0_4 + X_3_1_4 = 1
+ X_2_2_4 + X_2_3_4 + X_3_2_4 + X_3_3_4 = 1

Bounds
Binary
X_0_0_1 X_0_1_1 X_0_2_1 X_0_3_1
X_1_0_1 X_1_1_1 X_1_2_1 X_1_3_1
X_2_0_1 X_2_1_1 X_2_2_1 X_2_3_1
X_3_0_1 X_3_1_1 X_3_2_1 X_3_3_1
X_0_0_2 X_0_1_2 X_0_2_2 X_0_3_2
X_1_0_2 X_1_1_2 X_1_2_2 X_1_3_2
X_2_0_2 X_2_1_2 X_2_2_2 X_2_3_2
X_3_0_2 X_3_1_2 X_3_2_2 X_3_3_2
X_0_0_3 X_0_1_3 X_0_2_3 X_0_3_3
X_1_0_3 X_1_1_3 X_1_2_3 X_1_3_3
X_2_0_3 X_2_1_3 X_2_2_3 X_2_3_3
X_3_0_3 X_3_1_3 X_3_2_3 X_3_3_3
X_0_0_4 X_0_1_4 X_0_2_4 X_0_3_4
X_1_0_4 X_1_1_4 X_1_2_4 X_1_3_4
X_2_0_4 X_2_1_4 X_2_2_4 X_2_3_4
X_3_0_4 X_3_1_4 X_3_2_4 X_3_3_4
End
